c description: Graph pigeonhole principle formula on fast_gnp_random_graph(10,20,0.9)
c generator: CNFgen (0.9.0)
c copyright: (C) 2012-2020 Massimo Lauria <massimo.lauria@uniroma1.it>
c url: https://massimolauria.net/cnfgen
c
p cnf 184 774
1 2 3 4 5 6 7 8 9 10 11 12 13 14 15 16 17 18 19 20 0
21 22 23 24 25 26 27 28 29 30 31 32 33 34 35 36 37 0
38 39 40 41 42 43 44 45 46 47 48 49 50 51 52 53 54 55 56 0
57 58 59 60 61 62 63 64 65 66 67 68 69 70 71 72 0
73 74 75 76 77 78 79 80 81 82 83 84 85 86 87 88 89 90 91 0
92 93 94 95 96 97 98 99 100 101 102 103 104 105 106 107 108 0
109 110 111 112 113 114 115 116 117 118 119 120 121 122 123 124 125 126 127 0
128 129 130 131 132 133 134 135 136 137 138 139 140 141 142 143 144 145 0
146 147 148 149 150 151 152 153 154 155 156 157 158 159 160 161 162 163 164 0
165 166 167 168 169 170 171 172 173 174 175 176 177 178 179 180 181 182 183 184 0
-1 -21 0
-1 -38 0
-1 -57 0
-1 -73 0
-1 -92 0
-1 -109 0
-1 -128 0
-1 -146 0
-1 -165 0
-21 -38 0
-21 -57 0
-21 -73 0
-21 -92 0
-21 -109 0
-21 -128 0
-21 -146 0
-21 -165 0
-38 -57 0
-38 -73 0
-38 -92 0
-38 -109 0
-38 -128 0
-38 -146 0
-38 -165 0
-57 -73 0
-57 -92 0
-57 -109 0
-57 -128 0
-57 -146 0
-57 -165 0
-73 -92 0
-73 -109 0
-73 -128 0
-73 -146 0
-73 -165 0
-92 -109 0
-92 -128 0
-92 -146 0
-92 -165 0
-109 -128 0
-109 -146 0
-109 -165 0
-128 -146 0
-128 -165 0
-146 -165 0
-2 -22 0
-2 -39 0
-2 -74 0
-2 -93 0
-2 -110 0
-2 -129 0
-2 -147 0
-2 -166 0
-22 -39 0
-22 -74 0
-22 -93 0
-22 -110 0
-22 -129 0
-22 -147 0
-22 -166 0
-39 -74 0
-39 -93 0
-39 -110 0
-39 -129 0
-39 -147 0
-39 -166 0
-74 -93 0
-74 -110 0
-74 -129 0
-74 -147 0
-74 -166 0
-93 -110 0
-93 -129 0
-93 -147 0
-93 -166 0
-110 -129 0
-110 -147 0
-110 -166 0
-129 -147 0
-129 -166 0
-147 -166 0
-3 -23 0
-3 -58 0
-3 -75 0
-3 -94 0
-3 -111 0
-3 -130 0
-3 -148 0
-3 -167 0
-23 -58 0
-23 -75 0
-23 -94 0
-23 -111 0
-23 -130 0
-23 -148 0
-23 -167 0
-58 -75 0
-58 -94 0
-58 -111 0
-58 -130 0
-58 -148 0
-58 -167 0
-75 -94 0
-75 -111 0
-75 -130 0
-75 -148 0
-75 -167 0
-94 -111 0
-94 -130 0
-94 -148 0
-94 -167 0
-111 -130 0
-111 -148 0
-111 -167 0
-130 -148 0
-130 -167 0
-148 -167 0
-4 -24 0
-4 -40 0
-4 -59 0
-4 -76 0
-4 -95 0
-4 -112 0
-4 -131 0
-4 -149 0
-4 -168 0
-24 -40 0
-24 -59 0
-24 -76 0
-24 -95 0
-24 -112 0
-24 -131 0
-24 -149 0
-24 -168 0
-40 -59 0
-40 -76 0
-40 -95 0
-40 -112 0
-40 -131 0
-40 -149 0
-40 -168 0
-59 -76 0
-59 -95 0
-59 -112 0
-59 -131 0
-59 -149 0
-59 -168 0
-76 -95 0
-76 -112 0
-76 -131 0
-76 -149 0
-76 -168 0
-95 -112 0
-95 -131 0
-95 -149 0
-95 -168 0
-112 -131 0
-112 -149 0
-112 -168 0
-131 -149 0
-131 -168 0
-149 -168 0
-5 -25 0
-5 -41 0
-5 -60 0
-5 -77 0
-5 -113 0
-5 -132 0
-5 -150 0
-5 -169 0
-25 -41 0
-25 -60 0
-25 -77 0
-25 -113 0
-25 -132 0
-25 -150 0
-25 -169 0
-41 -60 0
-41 -77 0
-41 -113 0
-41 -132 0
-41 -150 0
-41 -169 0
-60 -77 0
-60 -113 0
-60 -132 0
-60 -150 0
-60 -169 0
-77 -113 0
-77 -132 0
-77 -150 0
-77 -169 0
-113 -132 0
-113 -150 0
-113 -169 0
-132 -150 0
-132 -169 0
-150 -169 0
-6 -26 0
-6 -42 0
-6 -78 0
-6 -96 0
-6 -114 0
-6 -133 0
-6 -151 0
-6 -170 0
-26 -42 0
-26 -78 0
-26 -96 0
-26 -114 0
-26 -133 0
-26 -151 0
-26 -170 0
-42 -78 0
-42 -96 0
-42 -114 0
-42 -133 0
-42 -151 0
-42 -170 0
-78 -96 0
-78 -114 0
-78 -133 0
-78 -151 0
-78 -170 0
-96 -114 0
-96 -133 0
-96 -151 0
-96 -170 0
-114 -133 0
-114 -151 0
-114 -170 0
-133 -151 0
-133 -170 0
-151 -170 0
-7 -43 0
-7 -61 0
-7 -79 0
-7 -97 0
-7 -115 0
-7 -134 0
-7 -152 0
-7 -171 0
-43 -61 0
-43 -79 0
-43 -97 0
-43 -115 0
-43 -134 0
-43 -152 0
-43 -171 0
-61 -79 0
-61 -97 0
-61 -115 0
-61 -134 0
-61 -152 0
-61 -171 0
-79 -97 0
-79 -115 0
-79 -134 0
-79 -152 0
-79 -171 0
-97 -115 0
-97 -134 0
-97 -152 0
-97 -171 0
-115 -134 0
-115 -152 0
-115 -171 0
-134 -152 0
-134 -171 0
-152 -171 0
-8 -27 0
-8 -44 0
-8 -80 0
-8 -98 0
-8 -116 0
-8 -135 0
-8 -153 0
-8 -172 0
-27 -44 0
-27 -80 0
-27 -98 0
-27 -116 0
-27 -135 0
-27 -153 0
-27 -172 0
-44 -80 0
-44 -98 0
-44 -116 0
-44 -135 0
-44 -153 0
-44 -172 0
-80 -98 0
-80 -116 0
-80 -135 0
-80 -153 0
-80 -172 0
-98 -116 0
-98 -135 0
-98 -153 0
-98 -172 0
-116 -135 0
-116 -153 0
-116 -172 0
-135 -153 0
-135 -172 0
-153 -172 0
-9 -45 0
-9 -62 0
-9 -81 0
-9 -99 0
-9 -117 0
-9 -136 0
-9 -173 0
-45 -62 0
-45 -81 0
-45 -99 0
-45 -117 0
-45 -136 0
-45 -173 0
-62 -81 0
-62 -99 0
-62 -117 0
-62 -136 0
-62 -173 0
-81 -99 0
-81 -117 0
-81 -136 0
-81 -173 0
-99 -117 0
-99 -136 0
-99 -173 0
-117 -136 0
-117 -173 0
-136 -173 0
-10 -28 0
-10 -46 0
-10 -63 0
-10 -82 0
-10 -100 0
-10 -118 0
-10 -137 0
-10 -154 0
-10 -174 0
-28 -46 0
-28 -63 0
-28 -82 0
-28 -100 0
-28 -118 0
-28 -137 0
-28 -154 0
-28 -174 0
-46 -63 0
-46 -82 0
-46 -100 0
-46 -118 0
-46 -137 0
-46 -154 0
-46 -174 0
-63 -82 0
-63 -100 0
-63 -118 0
-63 -137 0
-63 -154 0
-63 -174 0
-82 -100 0
-82 -118 0
-82 -137 0
-82 -154 0
-82 -174 0
-100 -118 0
-100 -137 0
-100 -154 0
-100 -174 0
-118 -137 0
-118 -154 0
-118 -174 0
-137 -154 0
-137 -174 0
-154 -174 0
-11 -29 0
-11 -47 0
-11 -83 0
-11 -101 0
-11 -119 0
-11 -155 0
-11 -175 0
-29 -47 0
-29 -83 0
-29 -101 0
-29 -119 0
-29 -155 0
-29 -175 0
-47 -83 0
-47 -101 0
-47 -119 0
-47 -155 0
-47 -175 0
-83 -101 0
-83 -119 0
-83 -155 0
-83 -175 0
-101 -119 0
-101 -155 0
-101 -175 0
-119 -155 0
-119 -175 0
-155 -175 0
-12 -30 0
-12 -48 0
-12 -64 0
-12 -84 0
-12 -102 0
-12 -120 0
-12 -138 0
-12 -156 0
-12 -176 0
-30 -48 0
-30 -64 0
-30 -84 0
-30 -102 0
-30 -120 0
-30 -138 0
-30 -156 0
-30 -176 0
-48 -64 0
-48 -84 0
-48 -102 0
-48 -120 0
-48 -138 0
-48 -156 0
-48 -176 0
-64 -84 0
-64 -102 0
-64 -120 0
-64 -138 0
-64 -156 0
-64 -176 0
-84 -102 0
-84 -120 0
-84 -138 0
-84 -156 0
-84 -176 0
-102 -120 0
-102 -138 0
-102 -156 0
-102 -176 0
-120 -138 0
-120 -156 0
-120 -176 0
-138 -156 0
-138 -176 0
-156 -176 0
-13 -31 0
-13 -49 0
-13 -65 0
-13 -85 0
-13 -103 0
-13 -121 0
-13 -139 0
-13 -157 0
-13 -177 0
-31 -49 0
-31 -65 0
-31 -85 0
-31 -103 0
-31 -121 0
-31 -139 0
-31 -157 0
-31 -177 0
-49 -65 0
-49 -85 0
-49 -103 0
-49 -121 0
-49 -139 0
-49 -157 0
-49 -177 0
-65 -85 0
-65 -103 0
-65 -121 0
-65 -139 0
-65 -157 0
-65 -177 0
-85 -103 0
-85 -121 0
-85 -139 0
-85 -157 0
-85 -177 0
-103 -121 0
-103 -139 0
-103 -157 0
-103 -177 0
-121 -139 0
-121 -157 0
-121 -177 0
-139 -157 0
-139 -177 0
-157 -177 0
-14 -32 0
-14 -50 0
-14 -66 0
-14 -86 0
-14 -104 0
-14 -122 0
-14 -140 0
-14 -158 0
-14 -178 0
-32 -50 0
-32 -66 0
-32 -86 0
-32 -104 0
-32 -122 0
-32 -140 0
-32 -158 0
-32 -178 0
-50 -66 0
-50 -86 0
-50 -104 0
-50 -122 0
-50 -140 0
-50 -158 0
-50 -178 0
-66 -86 0
-66 -104 0
-66 -122 0
-66 -140 0
-66 -158 0
-66 -178 0
-86 -104 0
-86 -122 0
-86 -140 0
-86 -158 0
-86 -178 0
-104 -122 0
-104 -140 0
-104 -158 0
-104 -178 0
-122 -140 0
-122 -158 0
-122 -178 0
-140 -158 0
-140 -178 0
-158 -178 0
-15 -33 0
-15 -51 0
-15 -67 0
-15 -87 0
-15 -105 0
-15 -123 0
-15 -141 0
-15 -159 0
-15 -179 0
-33 -51 0
-33 -67 0
-33 -87 0
-33 -105 0
-33 -123 0
-33 -141 0
-33 -159 0
-33 -179 0
-51 -67 0
-51 -87 0
-51 -105 0
-51 -123 0
-51 -141 0
-51 -159 0
-51 -179 0
-67 -87 0
-67 -105 0
-67 -123 0
-67 -141 0
-67 -159 0
-67 -179 0
-87 -105 0
-87 -123 0
-87 -141 0
-87 -159 0
-87 -179 0
-105 -123 0
-105 -141 0
-105 -159 0
-105 -179 0
-123 -141 0
-123 -159 0
-123 -179 0
-141 -159 0
-141 -179 0
-159 -179 0
-16 -34 0
-16 -52 0
-16 -68 0
-16 -88 0
-16 -106 0
-16 -124 0
-16 -142 0
-16 -160 0
-16 -180 0
-34 -52 0
-34 -68 0
-34 -88 0
-34 -106 0
-34 -124 0
-34 -142 0
-34 -160 0
-34 -180 0
-52 -68 0
-52 -88 0
-52 -106 0
-52 -124 0
-52 -142 0
-52 -160 0
-52 -180 0
-68 -88 0
-68 -106 0
-68 -124 0
-68 -142 0
-68 -160 0
-68 -180 0
-88 -106 0
-88 -124 0
-88 -142 0
-88 -160 0
-88 -180 0
-106 -124 0
-106 -142 0
-106 -160 0
-106 -180 0
-124 -142 0
-124 -160 0
-124 -180 0
-142 -160 0
-142 -180 0
-160 -180 0
-17 -35 0
-17 -53 0
-17 -69 0
-17 -89 0
-17 -125 0
-17 -143 0
-17 -161 0
-17 -181 0
-35 -53 0
-35 -69 0
-35 -89 0
-35 -125 0
-35 -143 0
-35 -161 0
-35 -181 0
-53 -69 0
-53 -89 0
-53 -125 0
-53 -143 0
-53 -161 0
-53 -181 0
-69 -89 0
-69 -125 0
-69 -143 0
-69 -161 0
-69 -181 0
-89 -125 0
-89 -143 0
-89 -161 0
-89 -181 0
-125 -143 0
-125 -161 0
-125 -181 0
-143 -161 0
-143 -181 0
-161 -181 0
-18 -36 0
-18 -54 0
-18 -70 0
-18 -107 0
-18 -126 0
-18 -144 0
-18 -162 0
-18 -182 0
-36 -54 0
-36 -70 0
-36 -107 0
-36 -126 0
-36 -144 0
-36 -162 0
-36 -182 0
-54 -70 0
-54 -107 0
-54 -126 0
-54 -144 0
-54 -162 0
-54 -182 0
-70 -107 0
-70 -126 0
-70 -144 0
-70 -162 0
-70 -182 0
-107 -126 0
-107 -144 0
-107 -162 0
-107 -182 0
-126 -144 0
-126 -162 0
-126 -182 0
-144 -162 0
-144 -182 0
-162 -182 0
-19 -37 0
-19 -55 0
-19 -71 0
-19 -90 0
-19 -108 0
-19 -127 0
-19 -145 0
-19 -163 0
-19 -183 0
-37 -55 0
-37 -71 0
-37 -90 0
-37 -108 0
-37 -127 0
-37 -145 0
-37 -163 0
-37 -183 0
-55 -71 0
-55 -90 0
-55 -108 0
-55 -127 0
-55 -145 0
-55 -163 0
-55 -183 0
-71 -90 0
-71 -108 0
-71 -127 0
-71 -145 0
-71 -163 0
-71 -183 0
-90 -108 0
-90 -127 0
-90 -145 0
-90 -163 0
-90 -183 0
-108 -127 0
-108 -145 0
-108 -163 0
-108 -183 0
-127 -145 0
-127 -163 0
-127 -183 0
-145 -163 0
-145 -183 0
-163 -183 0
-20 -56 0
-20 -72 0
-20 -91 0
-20 -164 0
-20 -184 0
-56 -72 0
-56 -91 0
-56 -164 0
-56 -184 0
-72 -91 0
-72 -164 0
-72 -184 0
-91 -164 0
-91 -184 0
-164 -184 0